
Log started (V12.10.0.0) Fri Apr  2 11:13:39 2021


Problem 'asset.lp' read.
Read time = 0.00 sec. (0.07 ticks)
New value for default parallel thread count: 1
New value for time limit in seconds: 400
Version identifier: 12.10.0.0 | 2019-11-26 | 843d4de
CPXPARAM_Threads                                 1
CPXPARAM_TimeLimit                               400
Found incumbent of value -0.883951 after 0.00 sec. (0.04 ticks)
Tried aggregator 5 times.
MIP Presolve eliminated 106 rows and 64 columns.
MIP Presolve modified 592 coefficients.
Aggregator did 260 substitutions.
Reduced MIP has 340 rows, 343 columns, and 1428 nonzeros.
Reduced MIP has 310 binaries, 14 generals, 0 SOSs, and 0 indicators.
Presolve time = 0.00 sec. (3.40 ticks)
Probing fixed 57 vars, tightened 3 bounds.
Probing time = 0.00 sec. (0.84 ticks)
Cover probing fixed 0 vars, tightened 45 bounds.
Tried aggregator 2 times.
MIP Presolve eliminated 80 rows and 75 columns.
MIP Presolve modified 43 coefficients.
Aggregator did 1 substitutions.
Reduced MIP has 259 rows, 266 columns, and 968 nonzeros.
Reduced MIP has 237 binaries, 10 generals, 0 SOSs, and 0 indicators.
Presolve time = 0.00 sec. (1.64 ticks)
Probing time = 0.00 sec. (0.47 ticks)
Tried aggregator 1 time.
Detecting symmetries...
MIP Presolve modified 16 coefficients.
Reduced MIP has 259 rows, 266 columns, and 968 nonzeros.
Reduced MIP has 237 binaries, 10 generals, 0 SOSs, and 0 indicators.
Presolve time = 0.00 sec. (0.67 ticks)
Probing time = 0.00 sec. (0.48 ticks)
Clique table members: 650.
MIP emphasis: balance optimality and feasibility.
MIP search method: dynamic search.
Parallel mode: none, using 1 thread.
Root relaxation solution time = 0.00 sec. (1.33 ticks)

        Nodes                                         Cuts/
   Node  Left     Objective  IInf  Best Integer    Best Bound    ItCnt     Gap

*     0+    0                           -0.8840       66.7403              --- 
      0     0       49.2801    82       -0.8840       49.2801      138     --- 
      0     0       47.2130    82       -0.8840     Cuts: 144      220     --- 
*     0+    0                           46.8295       47.2130             0.82%
      0     0       46.8499    82       46.8295      Cuts: 38      274    0.04%
*     0+    0                           46.8347       46.8499             0.03%
Detecting symmetries...

Repeating presolve.
Tried aggregator 2 times.
MIP Presolve eliminated 96 rows and 103 columns.
MIP Presolve modified 53 coefficients.
Aggregator did 8 substitutions.
Reduced MIP has 155 rows, 154 columns, and 498 nonzeros.
Reduced MIP has 135 binaries, 6 generals, 0 SOSs, and 0 indicators.
Presolve time = 0.00 sec. (0.59 ticks)
Probing fixed 4 vars, tightened 0 bounds.
Probing time = 0.00 sec. (0.19 ticks)
Cover probing fixed 0 vars, tightened 23 bounds.
Tried aggregator 1 time.
MIP Presolve eliminated 29 rows and 6 columns.
MIP Presolve modified 62 coefficients.
Reduced MIP has 126 rows, 148 columns, and 423 nonzeros.
Reduced MIP has 129 binaries, 6 generals, 0 SOSs, and 0 indicators.
Presolve time = 0.00 sec. (0.39 ticks)
Probing time = 0.00 sec. (0.16 ticks)
Tried aggregator 2 times.
Detecting symmetries...
MIP Presolve eliminated 0 rows and 1 columns.
Aggregator did 1 substitutions.
Reduced MIP has 125 rows, 146 columns, and 420 nonzeros.
Reduced MIP has 127 binaries, 6 generals, 0 SOSs, and 0 indicators.
Presolve time = 0.00 sec. (0.47 ticks)
Represolve time = 0.01 sec. (2.77 ticks)
Probing time = 0.00 sec. (0.15 ticks)
Clique table members: 120.
MIP emphasis: balance optimality and feasibility.
MIP search method: dynamic search.
Parallel mode: none, using 1 thread.
Root relaxation solution time = 0.00 sec. (0.82 ticks)

        Nodes                                         Cuts/
   Node  Left     Objective  IInf  Best Integer    Best Bound    ItCnt     Gap

*     0+    0                           46.8347       46.8499             0.03%
      0     0       46.8450    50       46.8347       46.8450      371    0.02%
*     0+    0                           46.8412       46.8450             0.01%

Clique cuts applied:  11
Cover cuts applied:  1
Implied bound cuts applied:  32
Flow cuts applied:  1
Mixed integer rounding cuts applied:  1
Lift and project cuts applied:  2
Gomory fractional cuts applied:  12

Root node processing (before b&c):
  Real time             =    0.04 sec. (25.09 ticks)
Sequential b&c:
  Real time             =    0.00 sec. (0.00 ticks)
                          ------------
Total (root+branch&cut) =    0.04 sec. (25.09 ticks)

Solution pool: 4 solutions saved.

MIP - Integer optimal, tolerance (0.0001/1e-06):  Objective =  4.6841188252e+01
Current MIP best bound =  4.6845019055e+01 (gap = 0.0038308, 0.01%)
Solution time =    0.04 sec.  Iterations = 371  Nodes = 0 (1)
Deterministic time = 25.09 ticks  (682.78 ticks/sec)


Incumbent solution
Variable Name           Solution Value
F                            68.000000
f1                            0.928812
f2                           20.230000
y208                          1.000000
y226                          1.000000
y243                          1.000000
y246                          1.000000
y184                          1.000000
y93                           1.000000
y135                          1.000000
y85                           1.000000
y171                          1.000000
y21                           1.000000
y86                           1.000000
y154                          1.000000
y58                           1.000000
s34                           6.000000
s59                           6.000000
s88                           6.000000
s118                          6.000000
s208                          6.306705
s221                          6.000000
s226                          6.475455
s243                          6.572316
s246                          6.650719
s268                          6.000000
s271                          6.000000
s177                          6.010000
s74                           6.070000
s184                          6.474807
s93                           7.055205
s135                          7.091220
s75                           6.190000
s85                           7.158389
s171                          7.130510
s21                           7.290773
s86                           6.774937
s154                          7.303642
s58                           6.820000
x19x58x1                      2.000000
x250x243x1                    1.000000
x223x21x1                     1.000000
x210x154x1                    1.000000
x173x171x1                    1.000000
x212x184x1                    1.000000
x108x184x1                    1.000000
x250x86x2                     1.000000
x223x85x2                     1.000000
x76x93x2                      1.000000
x134x154x2                    1.000000
x37x226x2                     1.000000
x257x226x2                    1.000000
x257x246x2                    1.000000
x136x86x2                     1.000000
x62x208x2                     1.000000
x76x93x3                      1.000000
x210x135x3                    1.000000
x3x21x3                       1.000000
x197x243x3                    1.000000
x197x246x3                    1.000000
x173x171x3                    1.000000
x134x85x3                     1.000000
x136x135x3                    1.000000
x62x208x3                     1.000000
x208x0x2                      1.000000
x208x0x3                      1.000000
x226x0x2                      2.000000
x243x0x1                      1.000000
x243x0x3                      1.000000
x246x0x2                      1.000000
x246x0x3                      1.000000
x184x0x1                      2.000000
x93x0x2                       1.000000
x93x0x3                       1.000000
x135x0x3                      2.000000
x85x0x2                       1.000000
x85x0x3                       1.000000
x171x0x1                      1.000000
x171x0x3                      1.000000
x21x0x1                       1.000000
x21x0x3                       1.000000
x86x0x2                       2.000000
x154x0x1                      1.000000
x154x0x2                      1.000000
x58x0x1                       2.000000
s19                           5.109309
z19z58z1                      1.000000
s250                          5.197449
z250z243z1                    1.000000
z250z86z2                     1.000000
z250z58z1                     1.000000
s223                          5.617462
z223z85z2                     1.000000
z223z21z1                     1.000000
s76                           5.758942
z76z93z2                      1.000000
z76z93z3                      1.000000
s210                          5.835781
z210z135z3                    1.000000
z210z154z1                    1.000000
s3                            5.963557
z3z21z3                       1.000000
s197                          5.380000
z197z243z3                    1.000000
z197z246z3                    1.000000
z197z135z3                    1.000000
s173                          5.826343
z173z171z1                    1.000000
z173z171z3                    1.000000
s134                          5.839681
z134z85z3                     1.000000
z134z154z2                    1.000000
s212                          4.453300
z212z184z1                    1.000000
z212z58z1                     1.000000
s37                           4.798980
z37z226z2                     1.000000
z37z86z2                      1.000000
s108                          4.742590
z108z184z1                    1.000000
z108z58z1                     1.000000
s257                          4.968060
z257z226z2                    1.000000
z257z246z2                    1.000000
s136                          4.864900
z136z135z3                    1.000000
z136z86z2                     1.000000
s62                           4.981660
z62z208z2                     1.000000
z62z208z3                     1.000000
z62z86z2                      1.000000
All other variables in the range 1-669 are 0.
